3
32
0 1 10 20 29 37 46 56 55 64 65 74 75 83 84 85 94 93 92 91 90 82 81 72 73 63 54 45 36 27 18 9
33
0 11 12 21 30 31 40 49 59 60 68 79 78 88 89 98 97 96 95 86 87 76 77 67 66 58 57 48 47 38 39 28 19
36
0 2 13 14 22 23 32 33 42 41 50 51 52 61 69 70 80 71 62 53 44 43 35 34 26 25 24 15 16 17 8 7 6 5 4 3
